118
0 1 0
1 3 0
2 3 2
3 4 0
4 5 0
5 5 1
6 5 4
7 6 0
8 7 0
9 7 2
10 7 3
11 7 5
12 8 1
13 8 3
14 8 7
15 9 2
16 9 3
17 9 6
18 9 7
19 9 8
20 10 0
21 10 1
22 10 4
23 10 5
24 10 6
25 10 7
26 10 8
27 11 2
28 11 4
29 11 7
30 12 3
31 12 4
32 12 8
33 12 9
34 12 10
35 12 11
36 13 5
37 13 7
38 13 10
39 13 12
40 14 1
41 14 2
42 14 7
43 14 10
44 14 12
45 15 0
46 15 2
47 15 8
48 15 9
49 15 10
50 15 11
51 16 0
52 16 3
53 16 4
54 16 5
55 16 6
56 16 10
57 16 13
58 17 0
59 17 2
60 17 3
61 17 5
62 17 7
63 17 9
64 17 14
65 17 15
66 17 16
67 18 1
68 18 5
69 18 7
70 18 16
71 18 17
72 19 3
73 19 5
74 19 6
75 19 7
76 19 15
77 19 16
78 19 18
79 20 2
80 20 4
81 20 9
82 20 10
83 20 16
84 21 0
85 21 4
86 21 5
87 21 6
88 21 8
89 21 10
90 21 14
91 21 15
92 21 16
93 21 17
94 22 1
95 22 2
96 22 4
97 22 7
98 22 10
99 22 12
100 22 15
101 22 16
102 22 19
103 23 8
104 23 9
105 23 11
106 23 13
107 23 15
108 23 17
109 23 18
110 24 0
111 24 3
112 24 5
113 24 7
114 24 11
115 24 12
116 24 15
117 24 21
